INDET
WARNING: for repeatability, setting FPU to use double precision
============================[ Problem Statistics ]=============================
|                                                                             |
|  Number of variables:         14756                                         |
|  Number of clauses:          141683                                         |
|  Parse time:                   0.05 s                                       |
|  Simplification time:          0.06 s                                       |
|                                                                             |
============================[ Search Statistics ]==============================
| Conflicts |          ORIGINAL         |          LEARNT          | Progress |
|           |    Vars  Clauses Literals |    Limit  Clauses Lit/Cl |          |
===============================================================================
|       100 |   14756   141683   478920 |    51950      100     31 |  0.000 % |
|       250 |   14756   141683   478920 |    57145      250     23 |  0.000 % |
|       475 |   14756   141683   478920 |    62860      475     21 |  0.000 % |
|       812 |   14756   141683   478920 |    69146      812     19 |  0.000 % |
|      1318 |   14756   141683   478920 |    76060     1318     18 |  0.000 % |
|      2077 |   14756   141683   478920 |    83666     2077     18 |  0.000 % |
|      3216 |   14756   141683   478920 |    92033     3216     18 |  0.000 % |
|      4924 |   14756   141683   478920 |   101236     4924     17 |  0.000 % |
|      7486 |   14756   141683   478920 |   111360     7486     16 |  0.000 % |
|     11330 |   14756   141683   478920 |   122496    11330     16 |  0.000 % |
|     17096 |   14756   141683   478920 |   134746    17096     16 |  0.000 % |
|     25745 |   14756   141683   478920 |   148220    25745     15 |  0.000 % |
|     38719 |   14756   141683   478920 |   163042    38719     15 |  0.000 % |
|     58180 |   14756   141683   478920 |   179346    58180     16 |  0.000 % |
|     87372 |   14756   141683   478920 |   197281    87372     16 |  0.000 % |
|    131161 |   14756   141683   478920 |   217009   131161     16 |  0.000 % |
|    196845 |   14756   141683   478920 |   238710   196845     16 |  0.000 % |
|    295371 |   14756   141683   478920 |   262581    72576     16 |  0.000 % |
|    443160 |   14756   141683   478920 |   288840   220365     16 |  0.000 % |
|    664843 |   14756   141683   478920 |   317724   170110     16 |  0.000 % |
|    997368 |   14756   141683   478920 |   349496   201265     17 |  0.000 % |
|   1496156 |   14756   141683   478920 |   384446    35138     14 |  0.000 % |
|   2244338 |   14756   141683   478920 |   422890    47058     19 |  0.000 % |
|   3366612 |   14751   141389   478144 |   465179   222116     17 |  0.034 % |
|   5050023 |   14751   141389   478144 |   511697   118621     21 |  0.034 % |
|   7575139 |   14737   140770   476362 |   562867    71278     22 |  0.129 % |
===============================================================================
restarts              : 16214
conflicts             : 9791154        (5362 /sec)
decisions             : 11865497       (0.00 % random) (6497 /sec)
propagations          : 4347198347     (2380490 /sec)
conflict literals     : 169109137      (46.62 % deleted)
Memory used           : 226.49 MB
CPU time              : 1826.18 s

INDETERMINATE
Timeout de 5 minute atins pentru fisierul downloaded_files/scheduling/scheduling_1.cnf
===================
Rulez minisat pentru fisierul downloaded_files/scheduling/scheduling_1.cnf...
./run_fam.sh: line 34: cpu-mit: command not found
===================
